100 8
228 415
630 828
407 551
617 931
664 113
475 501
799 827
90 228
593 216
689 786
323 137
563 330
438 69
584 350
689 477
399 214
547 175
503 500
126 460
482 748
731 664
653 88
559 385
405 764
682 203
140 228
85 434
679 215
497 60
418 177
497 832
157 430
661 165
553 808
137 119
410 617
381 136
231 368
729 159
469 387
632 159
714 399
443 727
660 826
629 459
254 199
277 281
531 814
694 484
860 833
499 395
602 407
94 110
553 912
444 794
689 546
59 70
741 852
709 666
616 276
756 762
76 246
508 676
498 573
757 190
742 690
438 117
536 671
561 700
225 835
267 341
369 564
483 545
559 644
87 485
753 440
858 584
502 537
109 407
666 773
781 586
555 165
438 143
767 705
637 898
526 407
65 198
620 628
848 622
493 507
488 757
507 576
266 350
81 163
124 236
283 223
679 581
719 638
273 110
508 560
